advent-of-code-2022/21.txt
qfzv: 5
stgm: 2
nzpf: 4
djpv: psrp * gzbq
zqlp: 5
fpvs: 5
zcft: 3
gcrl: 2
zltl: 2
tjrn: ppwm * blmz
qvgm: bnfs + sjgl
ptdg: lfld + rrgv
qszp: tjmp + jjcn
gdqh: 2
cswp: jhnc + qlcr
bzgq: 3
jmzc: wlcd * dgbh
bncf: 6
dprz: lqhl * sllm
zsgj: ntlb * bnsf
grtg: bzgq * tdzm
snvv: 3
srmc: rncb * dwjz
bfpt: 6
flwq: dcvq / slhv
qqgc: zbmv / qmlv
zgrz: 5
ccdd: pbnw * gfdj
nrnp: 6
gchd: 18
pmsd: vrsr + wpbl
jvcn: 2
pbnw: 11
zrhc: pmrb + gqbp
szrs: trqm + jmzc
qwnw: 3
ntlb: nfmh - hjtc
pvqs: 1
gcwl: 3
tdmg: fzrz * fhlq
csrq: jznq * jnwf
bwcb: 6
cfgb: wspr * rhnb
llpq: 8
jsht: 9
qmlg: 5
frbn: tgbr + sftz
pmrb: 6
vlst: szgh * rtjq
scct: 2
mjsp: 2
rmrt: dtrm + scgl
qbjp: bdlj / grpm
hntg: 5
zfjv: gzhr * srjf
mzgj: 4
mnmj: 14
gdnj: dwjd * sljm
gcbf: 7
hqnz: 3
bclc: jlpt - mfnl
rvwc: 3
ttbd: 11
dplf: dcmn + lmgp
rrrr: 3
dgjg: qlnz * lpwp
rvwq: 4
bnlg: zvnn + hwts
rmdw: 8
gjgw: ztql * cshq
jjnf: crbn * rbhb
cbdg: dwwc * ctpw
cfgp: 2
rbhb: jfhs + nsnl
nvbj: 1
hhzw: dvlq + gsnf
znvg: zgpm * ndgw
rpjr: 7
czww: 8
pprb: 2
bnrn: 3
mhtg: 7
vtgw: 2
rftv: ssqw * rzjs
cmbd: 9
tdbh: ndnf + bzrg
lgwq: mpzw * tfwd
tbbf: 4
lbth: 20
rjtv: hwqq + dlfs
bghh: 3
wgmb: 18
nmch: 3
cnlf: wgmb + flrd
scfr: 5
njzf: 4
lfqc: 5
hrhd: jvzp * dqmq
szgh: pmvh + thcq
gnfq: hrpg + pjzt
zcnd: 3
bjqc: zjcp * lhjb
dhnn: sssp * qjpt
vstn: 4
vbsl: ngqr * mcsq
dqhl: jjsn * rphc
vpgt: ggpl * zdnh
zpvl: lffr + bqnm
jqnv: 20
hjrj: drjs * nttb
vmrf: vjwv - mzsc
jpqz: 3
gzwj: bpwf / jnpt
fjbv: bbcs + tdmg
jdnp: rwsm * fdhq
njqh: pndp * ssdr
hvwm: 3
lmrq: fgbh * tpqw
nqcc: pvtf * chdr
gllq: 2
qsln: 2
bzhc: 4
wscd: gdnj * tdgz
jcwf: wmbs * qlcw
nsff: lcgl + tcpm
zgpm: 2
rjzq: 2
qzsf: 5
wspp: 9
clnc: hwcv + dscs
tffg: 3
wzzl: 2
sdsh: 2
jgfh: 3
rwlc: lclh * vvst
hpsb: 3
mqgv: 3
dljg: qzvq * mzgj
jtwn: 5
hgqr: dbfz / pjnb
lwtp: 3
pzgz: 19
rrlp: 18
zzjw: bbsr * gdjn
rhdz: 11
wzvv: 2
wvvg: fvtg + hntg
mpcp: 2
ffln: 2
fqnn: hqsj * qpfp
gzpl: 1
cdzg: lmwr + rdtr
jtfd: tsft + dljr
gsdc: nlmr * mzdf
ltgp: wtzb + fdqs
cdtv: mgbp + grtg
vmps: ltbg / jnjj
nfdr: 2
zltq: 2
mtgr: pzjw * msmn
rrrm: 2
lzfw: grzt + srtw
hvsl: rtpn * mhpn
cvfd: 2
sfpb: 7
tdlt: nzhj * fshr
bztm: 4
pqnz: vlvd + dljg
ftvz: hwfs * gllq
qwlf: 2
mfgd: 2
mjpg: wdnz * rzwq
gfcw: lrql * fflz
qdft: 5
bzwd: hwzg * stst
wzcw: 16
jwcw: 2
pzjf: 10
bhfq: 4
cjtl: 4
ssqw: ffdd - mwvr
tztw: trpf + hzwg
ctsr: prbb * mngt
zrfb: 5
pwvl: dpjl * mgbn
fdvb: dpdv - nghc
tlfr: 11
dcdc: 10
hhrd: tngn + sjnr
pcnm: 3
vtjm: zrhc * tfvs
jsdv: 3
crpp: 3
sjnr: pbpb + nbdj
cmvw: 2
dssv: crph * vdrd
wrrf: 13
dfnz: rzcf + fvwp
dzqq: 5
gbvv: tvzs / ddfc
brpd: bmdp / ljvw
fdhq: 2
drbl: bfpf * lbhv
stms: ltzb * zqjp
vzzm: 2
rfds: 4
llhr: 4
gllc: 4
nfds: 8
ltqq: 2
blsv: jvns + dbhm
jwcd: zfwg * hcdz
nqsl: 2
nnmp: hpnt / bqfl
mwvr: zdwt * wwmt
tmdp: 2
qhmr: pltn * zlhp
rwsd: 3
mhwh: frdq * jzwz
hrhv: 3
lhbc: 17
wgwz: zcwj + jcwf
mpzw: hjrm - bgjp
nttb: 3
hwts: 20
frpj: pwbc * mrvw
lcgl: 3
nwql: 2
mrhw: 15
zwtc: 11
dvvf: 5
lhgh: 3
wrnc: mnmj / sfjw
rwsm: nvvt + clnc
zgwq: wlwh + vrfv
qmsq: 7
msjj: 5
tzqd: 10
srcj: 3
bjls: czjc * bfww
dfwq: 2
tpjp: 2
smpj: bqvm + sjvg
vbhm: 13
tbsn: dpzq * hvjg
rrmp: nrbf * btrt
mghg: fjhq * dzgl
sjgl: snvv * fljr
znst: rngh + lfgp
mmsr: 8
dwjz: 2
jqnn: cbmq * ltlz
pnrv: 4
mmzp: lwtp * rfvl
crzt: jwnm - tjvp
jbrt: cffg + hhnl
bsbl: sthn + hhdl
tghn: wjnr + vrwc
gvrd: 5
cnhg: 2
rcph: 2
tdpm: 2
msnf: 2
pfpb: wcqt + ljrt
fnws: 10
jjzp: vqqq + zgrz
rpgq: 6
lbft: cnvf * nwrq
gfrc: 16
jbfm: 3
bbwv: 6
httr: lfch + hbsc
srvs: 3
hqbt: mjdt * qszp
tgwl: bvhc / swnb
jwzh: 3
wrgq: rwlc * ntcw
qrrl: tbcz * dcls
bbsr: dnch * cpnn
wjnr: zrzr * gpjm
zdnh: 2
pndp: zjtg + wgwz
wbgz: znmg * fggd
ppsv: wgwv * vwjn
pqwc: 5
drcj: 7
hdvj: 3
hjvb: ntvz * btbn
bjqp: nlmp + vljm
pbpb: pbrz + bqrl
pjzt: rdtf + vbgj
znws: npvh * mngs
pmhz: qhqf / jddv
zvgn: mcjc + wvww
zcnh: hwpt + pshj
rwrn: 4
nqhb: vpcs - ljrq
prgh: 1
ljlz: 4
bvwh: 5
sslw: 5
mmzd: 9
crmq: 2
gljs: 1
jzhq: jcdd - rtqj
cvwr: 2
fczw: 5
prsh: 4
vgrr: 6
tqnv: 2
gqbp: 5
swlv: prsh + drsj
gqsf: 3
pvdl: 12
mrpt: 5
jzwj: 20
dwjd: tfgs * nggj
trdr: 4
sdbz: 4
pfgr: wtnm * fzhd
vfdv: dstw + rwzz
pmvh: 5
pjfw: 6
zghg: 1
zsqm: 5
flrw: npzq + mrpt
ddnp: 5
rgcf: ltft * bwql
tlhz: szsm - zbmd
tbct: 7
gmnj: 7
wvww: pvdl + bzhc
nhpl: 12
sdsv: 6
qjlg: 2
lbfz: fhcd * fjlq
dvtm: gtdv + zllh
spdc: 2
qvvj: 1
svjc: gfrc + bqjf
cfzl: 2
hrsp: 4
ltzb: 6
jdhl: 2
zpsn: 5
czjc: 2
srlq: 3
hdbp: vwjj + zswz
hzzs: 17
zrsz: prpc * ddns
lmfv: tnmh * lfqc
qlcw: 4
jqbg: zbvf + rdll
pbvg: ngtc - zchq
gzjp: pdsb + zcft
fqmm: hbjg * tdfs
qprf: 6
wwnj: fjdw * nmcb
srtw: 4
tmjf: cdtv - jwwq
ggzl: 2
bgmp: 6
bpwf: sdfv / lmrd
bdjw: 2
lzbq: 4
ljvd: pnjw + vmnf
sssp: 3
rpsv: wnrv * qvmv
mcjc: gcgp / mnsw
tfwd: 3
nflm: 3
mvqn: rvgj + nrwb
bgpw: 3
dvvn: vtql / mncb
fgvl: njgj * sdsh
zhcm: 6
dbbf: mrpp + dvvn
wtct: hgrp * rjzq
tfjv: 2
fnfl: zgmz - zrzh
scfw: spdc * fhlc
drvc: 17
wbpj: 2
cjsf: qnmp * swqh
vfsq: gglq * jfnr
lsrh: bjfh + dqgv
dbrz: jshm + vrwn
mrtt: jbzz * pcrr
whfs: bsrr - tshq
dnvf: 15
rfmd: zjms + vwqt
hrfv: vwgn / cvwr
nchp: 3
thbn: 2
bcvg: llpq * rwrn
qmvc: 3
blbv: bzwd + rjcz
zvbp: 5
pqmf: flrw + fbfn
jlpc: 6
nlmp: vppz + bcvg
jbzz: 2
sqvv: 2
fshr: 4
qsnf: ggwz + qwcn
lmhp: 2
twhr: vrdb * hjrp
vztl: 3
tdhf: 2
pqpc: 1
pdsb: 6
mbcm: 3
vthl: 4
lmwb: 1
ngnq: dqhl + cmvw
qnsw: 2
wcmp: 8
fqvp: 1
djmz: 2
dmrl: 4
crwf: pqzb * nmsw
zgbt: dtbv * ccdd
qsmr: dgvl + llhr
wbgw: jwsh + nsrw
gpjm: 6
wpfl: 2
cqbc: 14
pqjs: bhnv * wznt
nqzz: zmbc / qmnf
dpzq: bffq + qsnf
gbwj: jjzp * svbc
wtft: 2
fsdq: 9
zmbc: hnrm * lpvn
bfww: 7
ltft: 3
rncp: 5
zrzh: wtfj * bqdp
jjcn: wbzq + zdfs
wqdm: 2
pndf: 9
lpsc: drbl * zltq
wcdl: 2
blpw: 2
zbfp: fvtv * rjbz
vfnh: 2
sljm: 6
znmg: 7
bncz: 2
gchj: ljdh * mfgd
hvgp: 1
wgfl: 2
dqmq: 3
cwbf: 11
zjls: 2
rnrr: 13
mjmt: 2
csmh: 3
mcgb: 4
vbzb: 1
zlwn: 9
jjqs: 16
tdlb: mtvr * btdd
vdrg: 5
nrrh: 8
cqvt: fcgv + qzjl
hbqw: tpbd * cqgt
nccz: 2
fflz: hnnn * zwfz
jndl: pzhq * lhbc
wlcd: wbgz / mrnl
gmls: 9
mrvw: rdbl * bnsg
grzt: 10
bpmd: bpqh * lcfc
lvfc: 12
wtrv: qrrl + smgc
wjgl: 2
gnws: 2
rntr: 19
dfdq: 13
bsvr: jmpf / tqvp
qnvb: 2
qtwh: gzwj + ntbb
bvhc: bfwg * wppd
spcw: zfhh + nrhs
mmdw: 13
brrg: 3
rzcl: 3
cfpv: vqqz / mbwn
zcjw: fpvs * svmv
qlbm: hvsl + tghn
zswz: hpdq - dfnz
pcwh: zrsz + nczs
pmvl: svpn + bvms
nvgq: vwsb / cbrr
lbhv: 19
svqs: csvj * vtgw
vsfm: cdzg * spjs
rhnb: qpvt * qlpt
wnsb: 10
dzgl: crch + gsmc
wddc: 15
mfnv: 17
ljvw: 2
fjlq: 2
jczh: 5
bqns: 2
lwmq: 5
njcs: 2
scgl: 7
dqsj: cqrt - mvhq
jmpf: vmdv * hgcp
qtmg: ljbj * swcp
bpqh: 3
zjtg: 16
pwsf: 3
cznm: 4
wsbf: lhsq * hgdz
fvtg: 2
dpcs: 2
nczs: twgp * dwbt
thml: bvwh * msjj
fgcz: nwmg - gbvv
jznq: rntr - qjlg
gsmc: wglg + fdfp
ngtc: dmbz + lqjv
vgvd: bfrh * sdbz
pwfz: 9
mbwn: 4
gscv: 2
zvrs: 2
qwwt: vgvd + fshq
ppwv: tgjq * zzgd
fpvv: dcgl * gfzz
srqt: 5
mphf: 3
gczb: 3
whsq: bshm + mlsd
rqwc: vpbs * csmh
fbbp: vfsq / bdjw
jsnh: cfwb * dpjq
cdjm: 2
bnsf: lrzz - nhrf
tghl: hdbp * lfjd
wzfz: jsvc + rmnc
snwb: 3
hcfj: 3
tpld: rdqh + rdgq
nsrw: 4
vbjd: 8
pjnb: 2
mrnq: 3
ntrl: rrvj + vfdv
cgsn: tmsg + npbs
bjmb: 5
rrvj: shns * rlfc
fvds: 2
lfhw: 1
zcwj: qmlg + hjvb
wpjs: wfbf * mpzd
bmdv: jhtn * tzqd
tmsg: gzjp * mhbr
ztql: 2
pvsb: 4
rngh: tfbf * tdrj
lchq: gfcw / ljlz
csgr: 5
msmn: 5
vgqc: 2
pqsf: 7
tptr: mvbq * cllt
cmmj: cswp * nflm
nsjc: 3
dwpn: vzzt * lmbq
fpmv: 5
jpcz: wqdm * hvns
rmqp: wwmm - llbg
hlzc: pqmf * gvzs
lnhj: 3
pbrz: 7
ndgw: zgwq + jrmb
njpm: 13
lmrd: 2
bwvj: 3
qlzh: tgdb + mhwh
mcgw: 4
dmbz: dsbm * grvw
tcpm: ghmt / mcgw
mvhq: fdvb * drcj
vlhb: 11
djvb: jtgr + nqzz
hhfb: 4
dppr: pcnm * pqfd
shlp: 7
prln: lzfw / gvpg
cqdb: 3
cfgd: jlzh * vtzw
qgqj: 4
crch: 20
rrhg: 2
zptq: 6
ggvm: rsbw / fczw
qvmh: 5
fbnl: mwgw * cqvt
czts: mphf + brpd
jcqj: 5
ndmd: 1
wtfj: wnrc * nvpj
hcmj: 2
frgr: htst - ntrl
qqvb: clwt * vdjv
grnm: 5
tvfc: 6
schv: 4
lzpb: zpml * jvcn
dwtr: rqgv * wjts
wlfc: 1
njgj: jbhc + blmn
bqqw: 2
vztc: vfvq - nqsl
vqdl: qsln * gcwl
vbbs: 4
hwcq: jbqj * pqjs
phsf: 2
qpvt: 17
mqbh: lbsw * jrnq
wwdp: 4
vgqf: 4
gjqb: 11
tfbf: wbpj * bszj
jpjn: 3
vvnm: lwmq + dfmd
drss: 2
mjcr: rdmn * tpvq
qchr: szrs / nssz
nqdq: 3
jdsw: 3
lrqq: vpwv * gmls
jszf: 11
rbnt: 2
bpwz: 8
fgbh: 5
bsss: 2
dvvp: 3
tpmc: pndf + dpcs
fwzn: jtjp + jpcz
zrjg: 3
cshq: svvt + qqgv
crbn: 7
psrp: 2
bwhf: 7
qflj: chcq + dcdc
tfqc: dwpn - tbbf
zwfz: 2
jqtv: tpdp + dpnv
ggwz: jtcc * lnhj
vpwv: 3
qwch: 9
ftfg: wgpw * dtdr
rnnw: 2
nlbz: 13
vqlq: fsjp / tfjv
lbvt: pdsp + tptr
bqfl: 8
lfgp: 1
gzbq: bgrj + gcbf
pddt: 2
npvh: 4
qfcw: 5
dscs: 2
lhmz: 9
gdrt: nmch * dfwq
wfjb: 3
cdjz: ttpn + pwfz
bsrr: ffjs / llhf
rccg: 2
tlbj: dclg + ndsq
qhzw: 2
pzmt: pzql * szvn
bdqr: lngh - wtft
rtjq: 2
lvjw: 2
wqbn: mwnr * hrhv
lljc: 3
zsws: 3
mhqf: hlzc / ntch
qsnd: thbn + svrr
pjjr: mghg + nlfl
bgjp: 5
nnqd: fqcd + bdnj
hwvn: cdjz - jncq
dfmd: 18
rdqh: 9
ssdr: 2
dqvl: 19
rzgg: pjfr * jjpw
rfzf: 2
shwf: mpwt * rqrr
svlj: tgfp - rtsr
bqfg: wsbf * vjmr
lpvn: bdzh + hzzs
dvtw: 2
jngv: 3
nlhz: zfjv * gwds
hvfl: pcvj * nwcb
lrjr: 19
nvnm: 15
rdzc: ngbd * pvlg
nghc: bsss * cvqt
tqvp: 2
whbj: 8
hnqd: qlmj * dzrz
wrvs: tgwl + vpgt
wcqt: gdzw + qvfs
rntj: jdnp - bsbt
jvdm: 16
mvsn: szjl * swwv
plmb: 3
gtgq: 7
sfjw: 2
zdwt: 15
swnb: 3
qnlv: 5
ntph: nlhz * nspp
fbhr: pfjq + thml
gztd: 4
rzcf: sfpb * mhqp
ldrq: djqq * qhmr
tjms: 2
drpl: jjnf * bgmp
hpdq: pqnz * bqrz
wjmr: mqnz + jfjz
bwpq: hjsf + rwbm
sjsf: shwf + svqs
tscl: 5
vqqq: 2
hddd: glrl + vfhd
ppmz: jhbm + zlng
wpbl: 2
qlnz: 5
fnnd: gscv * zsws
dbhp: vzsw - wzcw
qzzb: 5
zszw: szwp + fqvp
fvwp: 4
trbf: nvvv + tmqm
vrfv: 1
rdcd: 3
tpzd: 3
wfml: lrtd - wlfc
rdmn: bsrh + qrwr
fggd: 2
dddc: cfzl * nvct
tslf: 3
tnmh: 5
smbs: fnzc + tgvz
rtqj: qlzh * swlv
zbsr: 14
jrzm: 3
blmn: 8
lqmd: 2
pmjq: 2
bvrz: 3
dfqr: 3
pbdn: 3
drjs: 7
mldb: 2
snlw: 7
bjvn: 4
rsbw: mgcb + lhzt
qmnf: 2
crvc: bgzg * dvtw
rpfh: 2
mzsc: 3
swwv: 5
htst: mnfl / brfz
mrpp: fmsc * lmst
prbb: 8
lgdm: 7
hjsf: 15
qlmj: lmrv * frpw
pcvj: bsvr + rpsv
zwls: lnpt * qnfp
qpfp: 3
gbvs: mbpf + tnlc
bqjf: hjrj + mtfh
dcsf: qqgc + zmnw
hvjg: chcz * smbs
svlm: jpvb * rdww
dlgh: 2
mwvm: wvvg * msvb
jdbv: 11
zmnw: qmpd * jtjt
jqzg: mmdw * pjww
gscd: 4
fjmj: qfzv + lzcg
rrgv: dhbs / tbtv
chdr: lhgh + sdsv
sdmn: wctm + lqnc
qlpt: 14
qgvd: sqvh - bjtj
fchz: 2
blrz: ggng * svjc
nlgm: 2
fpbj: zcjw * wmmv
gzmm: ctcl * znhz
gzhr: 2
dwdg: qchr * mrwv
ggpl: scct * zzfw
vtqq: 2
vjcn: hlrd * gnvf
fzrb: nqdq * pqsf
pnzp: mnhj * cmzn
sdfv: btmz * qqqw
vwjj: vqlq / mpnd
lrql: llbb * zpsn
rhbj: jtld + rhdz
fffw: dftn * mlbp
wwfw: fclv * rhbj
wmmv: 8
ccdm: 3
npzq: 2
jhqm: 5
fmhs: 2
gzft: cznm * vbbs
lnvp: fqnn + hwvn
rgmz: 2
hcdz: 3
hnnn: pvqs + tgmq
pndm: 11
jfrr: gprc * cjtl
rjbz: 2
cpnn: 3
gcsd: zmhr + srbv
plsf: plfb / psdn
fdqs: 7
rqrr: 2
bzwb: dnpv - hwlc
smmp: 4
dtrm: 5
lmbq: 4
zjrf: zjmq / twfp
vbpf: qmwm * gvrd
gvhs: 16
ghgv: njcs * dvvf
drgt: 4
ttcq: 9
nvct: 3
fctm: 6
dbng: 11
bbcs: cfdp * vztl
ctpw: qlbm / vqqv
mzzm: 7
mpzf: mdnh * qfhb
cjmm: gcpl + pdfd
qlfq: mqst + qdft
zdnf: 10
wfbh: brrg * ppmr
jcdd: pdpj * dplf
tdct: 19
tmts: tpdr + pwcs
pjww: 4
csml: 17
sftz: sdmf * rmqp
lblt: pfgr + zqlp
whhc: qvgm * tvfc
cbqh: 2
ddcb: 12
lqdf: vstn * zjls
ltpg: 2
vrpg: bdmw + fnnd
vqqz: svvn * ghjc
fvtv: dppr + bjls
hszv: 12
tbcz: 3
vfzt: 11
frpw: 13
dhcj: rbth / gdrt
mqdb: 4
wwmm: 14
rrsf: nfpj * splj
pdfd: lvjw * srvs
jgzv: gncr * lmfv
fqds: hgnw + wzvv
zbmd: hwhh * jttn
ttsj: 4
pdgc: bwpq * snlw
zchq: rfmd + mlwm
bdmw: 4
qjpt: 11
wnbr: gscd + tffg
lcwh: jmpp * vzsm
nlqm: nlqn + jhqm
mbvz: tjwc + drmt
nlmr: rbnt + dddc
wctm: 4
qqct: cfgd / qmvc
vlwj: 2
dtmd: 2
rtsr: lbvt * tdhf
fnzc: tjhn * swzr
fqfl: 3
fjdw: 2
bcrr: 6
qnfp: 2
vwjn: 7
lpgr: 17
bsbt: rnrr * lwhv
tmtg: 2
zdhr: 5
nrwb: pnzh * srnc
jfjz: vftz * dnvf
qsfp: zzbq * fwpr
nssm: hvfl - mjcr
dtlz: 3
mbbb: 18
zbmv: gdmq + fvhh
lrwl: 11
bdnj: gbvs + wcfh
phsg: 3
svbc: 3
vmnf: jszf * pfpb
mlbp: 2
dpnm: zwls + mjtw
rbpb: srcj * gmnj
flzj: fjrf * nrwz
cczq: 5
rdvl: 10
cmjn: qjlc - dghs
hzfv: zbfp - tmjf
cmtb: lndz / bbbq
blmq: 3
mpnd: 2
gdmq: rrsf * zcnh
lnft: mmhl + hbqw
wjpw: 3
bstj: pqwc + hcfj
fsjp: ctsr * dqww
jmpp: 11
jzww: 2
mngt: 2
fhcd: mnjf + mpzf
zjpc: fmgd * gtgq
npbs: dvjf + lfhw
bwwd: 11
vrwc: 7
wbff: 2
ggng: 2
mdbq: 5
jbhc: 3
crpv: vlpl * hrrf
tpvq: jvdm + bwhf
lfzv: mbgv + vztc
jjpw: 2
tpqw: 5
jsjm: ddcb + vsml
dpjq: 2
fqjv: ngfq * pnrv
htpl: 6
pphj: wnsb * nwzq
cllr: vlst + qnlv
rdgq: 2
smfj: 3
nrqb: 6
dhfs: wqdn * lblt
fsgl: dvvp * dcjl
rdlq: 5
zdfs: 4
jgjr: gfbr * wtct
vfhd: whsq * bbpm
tggq: 2
ndtn: gchd + chnc
nfmh: rvwc + dzqq
wdnz: jzfv * qdvg
fbfn: zgvl + bgcj
fjqv: 2
vljm: crpp * crzt
pwcs: zsgj - mfnv
mlsd: 6
hgdz: 4
pzhq: 2
twgp: 3
jnpq: 4
jwwq: 4
vvst: 2
zpsg: 13
srnc: 2
szrt: 8
cqgt: qwwt + hwvs
ntch: 3
cbrr: 2
ffdd: trbf * mbbb
wjgh: 2
qdbv: 4
ngfq: httr * pddt
zbzf: 1
fptz: 2
drsj: 15
qwqj: 7
jfhs: 2
nrvp: pdbv + bfgq
sllm: zjrf + vsbh
vbwp: 3
vzsw: prgh + cpdz
ltlz: 4
nrwz: 4
jwnm: fwfp / gqpt
wqdn: 3
ngqr: lnzw * pvsg
vvfs: 2
grnj: hhzw * lddc
nvpj: 3
tshq: fjmj * sjsf
pwhs: wplt + jpbs
rdll: mjmt * lnvp
qvmv: hqnz * sfdq
fqcd: ddjm * zqtn
fbwb: 2
wgwv: 3
dgvl: nlqm * ztph
mzhl: 3
wczq: 6
hhdl: wnbr + mqdb
fljr: 5
vlgq: 2
zlcj: wqlc * hlbl
vrsr: 5
rtpn: dprz / rcph
lbjr: whfs / mjcf
mgpd: 11
jrmm: 2
vrdb: dnpb + ncmt
csth: lrwl * rdvl
bcfh: srlq * qrts
mrnl: 2
jnwd: 2
wcfh: nbsd + zltl
tgjq: 4
dpjl: 3
ljhq: fczh * srhd
tgdb: 3
tnpz: 7
llwg: 3
nbll: vlwj * qqjw
vlhw: 2
rwbm: tqnv * lvnb
bqbt: gpjr - qrdp
dgbh: 3
qqdc: mhtg * bmpj
pgwv: 3
bsrg: ftwz + nrvp
swqh: 3
svpn: 2
bshm: 17
lnvj: zgbv + gnmq
gbrc: nbcr + zltv
dstw: mrms + dvtm
mhcp: ccsj * nwwc
wdwp: cnvh + sgvs
mnfl: cqgp + humn
snhb: 2
wnlj: 2
rldc: 3
hjtc: 2
lddc: ccdm * hrsp
plfb: tdct * schv
mpwt: 4
bsrh: 6
fgfb: 2
swbb: vddz + gvwg
pvsg: wrvs + fzrb
ssld: 15
wnqw: 4
qlzg: mcgb * jpqz
fprq: lbfz - bpmd
vsbh: swrd * nwql
fzhv: 18
pttq: 4
hzgs: qqvb * vhsp
mnrj: bjmb + pmjq
qqgv: vbjd + fvvd
ptvm: 2
nbdj: lvfc + jsnh
qdhv: rccg * gtcn
dzpm: qnpw * fsdq
tjmp: rtcw - hjws
sgvs: pcwh + qlzg
whtz: 2
rphc: 7
lpfm: 2
nwpr: fstl + jbrt
vspg: rnjq + lvgb
btrt: lzbq + bbwm
jhdj: gnfq + wdwp
bdlj: bmsj * tqrw
tftm: pttq + bshc
tzsg: 19
nvjb: 1
cclc: 2
gfhr: 7
whds: 4
lnpt: bsrg + qpqq
zllh: zqdf / czww
rbst: 5
hwpt: bnrn * stms
mwgj: blbv * wdsf
pdnh: snwb * mzhl
nwwc: 3
bnjj: rmrt * rpfh
qtrr: jczh + mhqf
qhqf: frbn * vngj
wzms: 2
twfp: 4
dcls: tpvw / fjqv
fnft: mfcr + fbnl
cdmb: 4
wjvw: 2
pgrf: ltgp / csjw
crph: 2
qllh: vfzh + ttsj
tmwv: mvvd * bvrn
cqgp: djpv + dwdg
rdtf: ggzz + jvzm
jlpt: csml * wqlr
vhsp: dnvv * hjbq
bfpf: 3
ntvz: 2
tnlc: gqlh + qzhp
qqjw: 3
rnjq: 5
sthn: 1
pvlg: bqns + rbst
lrzz: nbzw + nfds
qrqp: wczq + gfdp
mmhl: vpnp + slfl
hjrp: 2
hpps: 4
bwzf: 3
pbjq: blmq * gdwn
rgpq: gqsf + ldrq
tjhn: 3
shns: nzpf * lljc
szsm: nwvq * mhfq
wpvq: 3
pclq: fnws + cqdb
sttz: ftfg + rnmd
fmgd: 7
wvrv: 19
jnvv: 1
btbn: nzwq + jngv
zmmm: 11
tpdr: swcz - pbjq
fmsc: 5
bhgh: 3
dqgv: nrqb * qnwl
bhnv: 2
hlpj: qvmh + cdjm
hbjg: qtmg / wjvw
qmbh: cnlf / bwvj
dghs: 4
wtnm: frfd + hvgp
lcfc: zrfb + dpbh
dcvq: wbff * gnnp
ldjc: 4
zqdf: njzf * bswf
slhv: 2
nbsd: hghp * vtqq
ddns: 2
jhbq: 16
hgcp: dhsc + brgc
pqfd: 8
wppd: flwq + rrlp
jwmh: 4
bwql: nsjc * zvbp
zvmc: 2
djqq: 3
dnpb: rmdw * wczb
fhlc: shrb + vfcq
hjws: 9
chcq: zhcm + cghs
zjsp: 2
jvns: pnzp + drvc
rzwq: pdgc + tmld
hbdd: rgpq * fgvl
pvbb: tlbj - sppw
fzrz: 4
rsfs: 7
hnfj: nnhb * bgpw
lszd: wlls * qsnd
nwmg: scfr + vzpp
jddv: 2
fdfp: gzch + znvz
rdbl: 2
pfbt: 4
jrjq: 9
tdwr: zsdv * rdzc
brgc: bqms * shjm
mpzd: 4
mgcb: vbpf * prln
stjj: 13
mhbr: 3
hrrf: 7
rnmd: bhfq * lpgr
dprj: lbmr * wdqg
jfnr: 2
zwjn: dfrw + sclv
llhf: 2
zjwn: zzjw + qrzh
dzwf: lvjh / pznw
wnrc: 3
fcll: 3
jtld: 6
grpm: vgqc * rfds
qnmp: 13
rmfc: rrhg * blsv
rtws: 6
thgr: 6
rbpv: 2
cmzn: 2
pdbv: 5
spjs: 4
wgqw: qmbh * ndtn
nmcb: wgqw / tbct
rltn: 10
mtfh: 4
wmbs: cvmz * cnhg
wrwd: jczn + rpjr
dfrw: gcsd + lqdf
tsft: 3
hgrp: smpj * lczg
fjqc: zgbt * scfw
svzf: tdwr + jgjr
wqzr: smfj + zdnf
sjvg: vddb + bbrn
nfwh: fctm * pzjf
ztmr: 4
snss: 4
gnnp: fbhr / nbll
cvqt: wqzr * jbbn
bshc: fhsz + lsrh
gfdp: 18
zsdv: bhtf * bqjz
smgc: jddp * fffw
hwmr: 3
nwzq: 3
jvzp: fnrr + bncf
jmbs: 11
vtfl: qdbv + rwsd
tmqm: jdcv * vmps
zzgd: 2
vfzh: 13
mrvc: bjqp + lszd
jmcr: mtgr + znvg
zrst: lmwb + vgrr
wlwh: ndmd + qprf
tgfp: vhpc * zvrs
hqsj: 7
ngbd: jndl - lfzv
lzcg: 6
wqlr: 2
shlc: 1
bqvq: lvzz * wspp
bpvq: dgjg - crwf
tnjv: 5
lqjv: hsvq * trhc
vzht: qlfq + mbcm
ntbb: gjgw + ljhq
pfpc: pzmt - vzzm
zchr: 7
dpbh: 2
zhll: cfgb - rjtv
gzlj: 4
tvzs: bwwd * wzzl
jshc: cbdg + wpjs
splj: rdlq + rrrm
dhtw: 2
dtbv: 6
dnbn: 2
rmnc: lbth + jhtw
dpnv: wddc * mpvw
jddp: 8
nshz: rgmz * hvwm
srjf: vbhm + mqbh
lvjh: hjpl + wfml
mqnz: vrwq * zjsp
hwhh: rmfc / nccz
zvnn: 13
wtng: 2
mjdt: wzms * pbdn
mfcr: qzzb * pclq
cffg: 1
qrts: 15
jttn: 2
jzwz: 5
gfdj: 2
thcq: 8
svsd: drlh - nwpr
rbth: mrtt - nzbf
srbv: wrnc + szrt
cfwb: 11
sgqs: zftz + ttbd
gdjn: 2
mfnl: 11
wlls: jfrr + gfjd
qvqm: srmc + vlgq
qdvd: 2
vqqv: jvwf * fmhs
rcfq: 16
vgzs: 3
cpdz: nqhb * vfzt
mjtw: mqbg * hzgw
zlng: sslw + lhhh
vnlg: 3
mbgv: 5
vwsb: wzfz + wzld
lffr: 5
zmwv: sjst * fnft
slfl: fjqc / zvmc
bzvl: 2
hzwg: 4
nvzn: svsd / ghts
tnbb: lrjr + rgcf
clng: 4
pjwv: qgvd * ptdg
szvn: pqpc + htgh
dlfs: hnqd + mhcp
gdrd: rnnw * ztmr
hbjb: jzwj + jdsw
hwzg: 5
wbzq: gzlj + lhmz
ppwm: 17
lmwr: zwtc + cjpv
hrqt: mwgj / wjgl
ljdh: 13
srrz: jssr / jdhl
bght: 2
cwqd: 4
gqlh: pmvl * rzcl
csjw: 2
ctpc: 3
jggf: 2
gnmq: 1
ghjc: fjfm + gqrh
gsnf: pwsj * rdcd
zzbq: mbvz * jqbg
nptd: 4
fhsz: gtzd * phsg
wdqg: 3
jvzm: 3
zpml: qqdc / zdzq
pfpm: jtwn + mjsp
bmpj: fcrf - rzgg
bnfs: cdtm + tdbw
jlsh: gzpl + hvrb
mwhb: srqt * smnz
qgjs: ntph + tbsn
jnwf: 2
rwgm: 8
vrmj: 4
mvvd: rrmp + swnh
qvfs: 2
rfzq: ndlp * vgzs
fwfp: dprj - qtwh
ljdl: 2
msvb: 5
zdzq: wzmf - jwzh
fczh: jtcz * hgsw
rlfc: vjzl + znng
ffhz: 2
qvls: 2
hzgw: 3
bfrh: rqjf + pjfw
ggzz: 20
hdmp: dbng + tztw
jhnf: sqvv * vqdm
gqpt: 2
wspr: cvfd * lpvj
nnhb: 5
chnc: 5
qmsh: vhdq * pgrf
zjcp: 5
tqrw: 2
gprc: 10
qnpw: qmsh / snhb
wvbs: mwhb + vnlg
wlmb: vsfm - lbft
trpf: qflj + clvf
mpbm: 3
gvwg: tznv + gdrd
svvt: nvnq + ftlw
bwtj: ghgv - bhgh
cpfd: 2
djsn: twhr * hwcq
qdvg: zbzf + wnzj
hfnh: wwfw + dhcj
nmsw: 2
bbpm: 3
gfrd: wdtm * vgcn
dgzp: tnbb * vvsn
zrwt: 5
hjbq: 2
hjrm: bzvl * dbrz
ffvg: sgqs + jcht
mpvw: wfbh + vbsl
mlwm: 6
ljwc: 3
gzch: 8
mvfn: bdqr * dhtw
bqjz: 5
rwzz: crpv * jtfd
qcvf: dbhp * vfcv
dbhm: zcdf + qrqp
ncmt: fwzn * ctpc
vsml: grnm * cczq
rvgf: 17
nwcb: 8
cndb: nmrl + bght
lrtd: zvsm * jwcw
fnrr: 1
fjfm: 10
wnzj: 10
hwfs: 3
dshd: ffhz * gqnp
fsvg: dzwf * vdnd
zbvf: wwpv + ltbv
hvns: 6
ftlw: 4
snjj: gnws * fsvg
vvsn: phgm * crvc
mtvr: qdhv + mrnq
fjrf: 4
dtdr: 13
rvhr: jnpq + bcjc
nljp: 10
wpdh: zvgn + mvqn
swrd: jhpr * jbfm
zvsm: 7
bfgq: jhbq - fdfz
swcz: wjmr * ljdl
cdtm: 2
sclv: 3
wwpv: wgrz * nqcc
bqdp: zjwn + jlsh
mdcw: hlpj * pzgz
nzrb: 12
qfhb: plsf + thgj
zfhh: 3
rqgv: 2
vvmd: shlc + lpsc
dwwc: 11
vqdm: 4
btdd: 2
bffq: wlmb - cjsf
drmt: wtrv + tdlt
mnjf: phsf * mwvm
mgnj: 3
rdtr: fjbv + mvsn
wgrt: qcvf + gbwj
jnjj: 3
dcjl: 5
mjcf: 2
dftn: 11
tgvz: 4
qzhp: qhzw * jfwp
hgnw: 4
zcdf: zptq * bbwv
mdnh: 3
hrpg: fpbj + bcfh
flrd: 3
mgbn: 3
dljr: 13
wjts: czts * hpps
prpc: wbvz * nlbz
nbcr: bsrl + qwch
nwrq: 15
dwtj: hbgv + bqfg
dwbt: 3
lvnb: jzfz - pfpm
tgmq: 10
sfdq: 2
jjsn: 3
lpvj: 17
szjl: gztd + jrjq
psdn: 4
rvgj: tghl / zqpl
cjlm: nvnm + pgwv
svmv: 2
jssz: 2
lnzw: 2
wgch: 4
vppz: gjtp + tcsm
hlwv: jhsc + tdps
jzfv: 3
svsj: 14
cpgt: 2
bdhb: bcmc + nsff
zfwg: 5
tpbd: 7
vwgn: znst * dnbn
ddfc: 2
ltsc: pmms * jqtv
mnhj: tnnh + pfmd
jtjp: 15
ljbj: lnft - fqjv
ljrq: 2
bsrl: bgzr * zrst
vjzl: fpmv * jgfh
tdfs: dshd + mzlt
nspp: cmtb * fvds
ztcj: bghh * bwzf
hbsc: dqvl * vrff
nwvq: gzhm * lrqq
mncb: 5
hhnl: wqbn + qvqm
nrdz: pprb * tdbh
pzjw: 3
vddz: tscj * cpgt
vpbs: 3
tmrz: zbhg + dwtr
qmcj: hddd * smmp
tcsm: mpcp * vjcn
gpjr: hdmp + ldjc
tngn: wvrv * bnds
dbfz: pfpc * qwlf
nclw: gjqb * hrfv
fgwj: lzpb / qvls
gcpl: 7
fptl: blrz / wtng
bcjc: jqnv + wphq
fvvd: zsqm + jsht
dqvs: 3
cnvh: msnf * nrdz
swnh: 15
tjvp: ggzl * qjnj
vtql: qllh * csth
qrdp: ccfj * drss
vjnv: 3
pmms: cdmb * ljvd
zhdm: bmdv + gczb
mrms: zchr * bwtj
lmgp: drpl + bdhb
wdtm: 3
mzlt: rbnv * djvb
svvn: 2
lhsq: jhnf * mldb
gfbr: rpgq + tdpm
zvgw: 4
tmdn: 2
jfwp: bpwz + fzhl
mrwv: 16
bmsj: hcpr * bjvn
szwp: 10
vfvq: 8
dsqv: 2
vzzt: 4
tbnt: 4
gfjd: 1
htgh: zrjg * vdhw
llbg: 3
trqm: 5
clwt: 2
zqjp: 2
swzr: llwg * jpjn
bcmq: 7
jncq: 1
dpdv: bclc * shlp
blqv: vvfs * zcnd
mngs: 12
jvwf: 4
jhsc: cpnw * blpw
jpvb: gzmm * nrnp
vhpc: bqvb + wpdh
lvgb: 18
vrff: stjj + gfrd
tgbr: qnvb * blhs
pvtf: 3
gfzz: 15
lhpc: 5
nzbf: tmts / vlhw
wgrz: nwww - vvnm
ppmr: ppmz + mnrj
drlh: fqnp * tmdn
vtnh: 3
nssz: 2
swcp: 2
mrfc: dlgh * shhp
qrwr: rcfq - tpzd
wqlc: 5
zmhr: 8
btmz: nldm - fgcz
wbvz: 2
wzld: 10
qmwm: 7
hrbd: 2
jcht: 4
gbdt: 3
vwqt: 6
vtzw: 3
zjms: ncpr - wbgw
hwcv: bsbl * djmz
gncr: 12
sqvh: stnr + vqdl
mdgj: fnvm * fqds
wjws: 11
fdfz: 2
vpcs: jggf * pvsb
gtcn: 17
nbzw: wjws + nhpl
trhc: wgch + zpvl
jshm: 2
ghzn: fbwb * thvs
hwlc: thgr * vmrf
mblt: bnjj + spcw
gzhm: 3
pwsj: 3
mhfq: 9
vdhw: 2
lpfs: 2
jpbs: 2
gqnp: tzsg * dbbf
blmz: tpmc * jdbv
znng: 2
ghnj: 4
zqpl: 2
nvnq: 3
scfg: 17
wnrv: 14
pphv: rvgf * vmdc
tmld: jshc * wnlj
qrzh: gllc * jmbs
vrwn: zbsr / ptvm
lbsw: 4
fqdh: vgqf * mvfn
frsp: fzrs + dqsj
lqnc: 17
nrhs: 20
dvjf: 5
znhz: 3
pnzh: rqdn * plmb
cfdp: tnnn + ztcj
wglg: 1
rhwf: stgm * qpqt
nzhj: tmrz / zrwt
bdzh: 14
fhlq: 6
gvpg: 2
jnpt: 2
tdbw: jlht * fjzn
grvw: 2
pnjw: zhll + mjpg
wczb: rwgm + sdmn
lqhl: 2
bqnm: 14
vdnd: 2
bswf: cjdf + tpld
rzjs: 2
chcz: hqbt - jpcj
ndnf: 2
nggj: wjgh * whds
jpvz: lqmd * svzf
pwbc: 2
gcdb: hdvj * ppwv
ghts: zvgw * fcll
wpjz: rhzm + rrhs
tdrj: 16
bszj: 3
vpnp: fbbp * fqdh
vfcq: fzhv * zmmm
cpnw: gchj * ltqq
zgvl: 11
tjwc: dssv * flzj
lvhh: 3
ttsr: qsmr - ngnq
wjfb: 2
gtdv: 8
ltbv: hlwv * vfnh
jtcc: pphj + zghg
jtcz: 3
dhbs: gvhs + nshz
tnnh: 7
jccr: cllr * qnsw
fclv: dmrl * hhhw
pfjq: nvgq + gcdb
cchz: nvbj + ftvz
dclg: mmsr + lzcq
gtzd: 2
vlpl: 2
svrr: 5
blhs: vspg + mrfc
ntcw: zjrq / tmtg
thgj: 4
dnpv: bstj + dhfs
bqvb: frsp / qbjp
nvvt: mrvc / cpfd
mwgw: 2
dnch: qwnw + cwqd
mgbp: wgfl * pfbt
smnz: 2
dwrc: rftv + qmcj
hlrd: 5
znvz: svsj * wlpq
cllt: 2
fcgv: 11
jbqj: 2
dzrz: 2
vgcn: ssld + nvjb
clvf: 4
bgcj: 5
hgsw: 3
rqdn: gzft + dfdq
nhrf: 2
qlcr: fnfl / tpjp
lmrv: 4
qmlv: clng + dtlz
dqww: jrmm * tdlb
bbrn: zpsg + zwjn
sppw: bztm + qwqj
rbnv: nfwh + dhnn
wdsf: 6
bzrg: 14
lczg: 2
lzcq: vtfl + vzht
wplt: gljs + zlcj
gqrh: nrrh * rldc
wtzb: jccr / crpm
jssr: shpn - hbdd
rhqj: 2
qjnj: vdnr + sttz
tmlt: rqwc * fqfl
bpwm: 4
shhp: wjpw * smbt
nlqn: rfzq * wcdl
tscj: 15
jdcv: 3
fzhl: jsdv * mqgv
lpwp: nvzn + svlm
wphq: 2
vbgj: wwdp * ffln
qzvq: 6
lhzt: lpbd * jzhq
bjtj: 1
jhtw: 3
bnds: 2
pznw: 2
rncb: qvvj + blhp
bcmc: nzrb * cclc
wdqj: bnlg * wflb
lbmr: mdgj + ggvm
tdgz: nssm * ljcj
ccsj: pndm + ttsr
nvvv: svlj / blqv
qnwl: 6
zjrq: rhqj * cfpv
dvlq: crmq * drgt
tbtv: 2
hsdb: mgnj * hfnh
jhbm: dzpm + znws
bgrj: qtrr + hzgs
tlph: zszw - fptz
qpqt: 3
shpn: rntj / qmsq
bqrz: 3
crpm: 2
qqqw: lhpc * vrpg
vdjv: 3
lvmr: 5
brfz: wfjb * nlgm
vngj: 2
tznv: 3
ltbg: wrgq + mblt
hwvs: rbpb * bqvq
wznt: mmzp / pwsf
frdq: 4
hpnt: jqnn * rgwd
rhzm: 7
nnqh: dfqr * bvrz
lfjd: 2
ctcl: 2
pdsp: lmrq * ddnp
qzcw: zlwn * jwcd
rfvl: fqmm + ltsc
rgwd: 3
mcpl: 5
vrwq: vtjm + pbvg
hhhw: 7
thvs: lbjt * vdrg
fzhd: fchz + vthl
hghp: 11
hbgv: wpjz * rsfs
lvzz: 2
pzql: 7
wqbs: wscd + pjjr
bjfh: 1
rbwf: 5
gjtp: tlph * tlfr
wfbf: 3
gvzs: 3
bvms: 7
cbmq: 4
phgm: 2
humn: 2950
zgbv: 16
ttpn: 4
glrl: snss * mzzm
zltv: scfg + nnmp
nrbf: 2
fnvm: 4
nmrl: hnfj * lvhh
jlzh: dmmh + cjmm
ftwz: vrmj * fprq
vfcv: 4
mhpn: 5
gnvf: zhdm + rhwf
vmdv: 2
jtgr: 2
tdzm: 5
sdmf: 5
ztph: 3
rrhs: lnvj + wvbs
lhhh: 2
hvrb: whtz * hszv
cnvf: 3
fshq: mpbm * pdnh
lndz: gcrl * pmhz
bqrl: 9
hlbl: jlpc + qdvd
smbt: 3
hsbf: jcqj * qfcw
vdnr: qgqj * qqct
vmdc: 2
sjst: 7
bmdp: fgfb * snjj
bfwg: 3
lfch: bfpt * tlhz
lbjt: 5
mzdf: 2
bgzr: 3
stnr: 1
fjzn: 5
cqrt: whhc * frgr
wwmt: cgsn - nfdr
ndlp: 3
rjcz: 3
dhsc: hrqt + bzsh
qwcn: cqbc + grnj
blhp: 10
dnvv: 11
pqzb: jsjm * dtmd
bqvm: bqbt + vbzb
mbpf: trdr * gsdc
vddb: mcpl * vjnv
wzmf: 10
dqnq: 2
bqms: 3
nzwq: 4
vzsm: 2
bzpt: csrq + mgpd
pcrr: qsfp + djsn
fcrf: rrrr * qgjs
zgmz: dwrc / tmdp
fstl: swbb * zdhr
ndsq: gbdt + njpm
mvbq: 3
bbrf: jmcr + bcrr
ccfj: 4
tpvw: gfhr * lpfm
tdps: pmsd * hzfv
lclh: 4
cjjn: 11
tvzv: vvmd - nnqh
dcmn: bpvq / cjjn
mcsq: zjpc - ttcq
nwww: ffvg + bzpt
vjmr: 2
bbbq: 2
fvhh: jgzv + wgrt
llbb: 4
ljrt: bjqc + hhrd
mwnr: lpfs * rtws
rtcw: vlhb * hpsb
frfd: hnnp + mdbq
tnnn: 2
mqbg: gbrc * wzwh
drmn: bwcb + hwmr
zrzr: hcmj * ljwc
jwsh: 3
tfgs: 2
dsbm: tmlt + bncz
hnrm: 2
pltn: 3
vhdq: 2
ncpr: whbj + frpj
vzpp: jjqs * tjms
tpdp: jpvz + dgzp
wflb: cchz + rltn
lhjb: lgwq + wjfb
ftcv: tslf * dqvs
rnll: 17
lngh: lvmr * qzsf
cjpv: 1
hsvq: 2
lfld: pphv + rlpl
jrmb: 3
wgpw: 3
mqst: 2
mhqp: 7
wzwh: 3
mnsw: 8
jzfz: rbpv * tfqc
fwpr: dpnm * jhdj
fqnp: rvhr + lbjr
gdwn: rbwf + pjwv
nldm: dqnq * fptl
hwqq: tftm * htpl
nlfl: nclw * lcwh
gwds: njqh / ltpg
cghs: jrzm + bpwm
gcgp: bmpl * lmhp
bnsg: 4
wgwp: pwhs + tscl
srhd: cjlm + tnjv
bvrn: 2
wlpq: 2
lmst: cwbf + jnwd
root: hsdb + mwrd
dmmh: 10
lsjb: dsqv * wqbs
hcpr: mrhw - tbnt
wrzd: tjrn * fpvv
vftz: zmwv + srrz
jhpr: 3
nsnl: 5
lpbd: 2
gdzw: hrhd * nptd
jlht: 3
qmpd: cmmj - dwtj
fzrs: pwvl * mmzd
tfvs: 2
zlhp: 3
shjm: 12
bbwm: 3
nfpj: 14
zftz: 10
rqjf: rncp + jzww
cvmz: 3
rlpl: 4
jsvc: 1
vjwv: 10
shrb: bzwb * csgr
rdww: nljp + drmn
pdpj: 19
qpqq: bbrf * ghzn
vdrd: 14
fjhq: tvzv + mdcw
jczn: wcmp * gdqh
ghmt: cmjn * hhfb
gglq: jssz + qzcw
ffjs: wdqj + dcsf
stst: 2
hjpl: 9
bgzg: pvbb + wrrf
jbbn: 2
mwrd: fgwj * wrzd
jhnc: cbqh * nnqd
hnnp: 1
vlvd: fsgl * cfgp
zbhg: nchp * wrwd
pfmd: vbwp * rfzf
zqtn: 2
jrnq: 7
qzjl: tggq * wnqw
zjmq: ghnj * hbjb
csvj: cmbd - jnvv
jhtn: 2
bmpl: rvwq * lgdm
bhtf: tnpz * wpvq
qjlc: 14
jtjt: 2
pshj: jwmh * bcmq
dcgl: wgwp + hgqr
pjfr: lsjb * bqqw
cjdf: vtnh * rnll
ljcj: 3
bzsh: wwnj + jqzg
ddjm: lchq + cndb
jpcj: ppsv + tmwv
lwhv: hsbf * wpfl
zzfw: hrbd + ftcv
